(set-logic ALL)
(declare-const input_str_VAR String)
(assert (not (< (str.len input_str_VAR) 0)))
(assert (not (str.contains input_str_VAR " ")))
(assert (not (< (str.len input_str_VAR) 0)))
(assert (= (+ 0 (str.indexof input_str_VAR " " 0)) (- 1)))
(assert (< 0 (str.len (str.++ "" input_str_VAR))))
(check-sat)
(get-value (input_str_VAR))
